p edge 69 218
e 1 5
e 1 8
e 1 17
e 1 30
e 1 34
e 1 39
e 1 59
e 1 63
e 2 12
e 2 20
e 2 22
e 2 44
e 2 47
e 2 56
e 2 62
e 3 6
e 3 13
e 3 22
e 3 30
e 3 43
e 3 61
e 3 63
e 4 13
e 4 31
e 4 62
e 4 64
e 5 8
e 5 15
e 5 22
e 5 27
e 5 30
e 5 34
e 5 36
e 5 49
e 6 13
e 6 20
e 6 34
e 6 36
e 6 60
e 6 62
e 7 10
e 7 22
e 7 25
e 7 27
e 7 45
e 7 62
e 8 9
e 8 10
e 8 13
e 8 20
e 8 43
e 8 47
e 8 56
e 8 67
e 9 19
e 9 41
e 9 50
e 9 61
e 10 28
e 10 51
e 10 52
e 10 55
e 10 59
e 11 37
e 11 38
e 11 61
e 11 66
e 12 15
e 12 16
e 12 18
e 12 34
e 12 39
e 12 40
e 12 53
e 12 64
e 13 30
e 13 51
e 13 55
e 14 26
e 14 36
e 14 39
e 14 50
e 15 25
e 15 43
e 15 51
e 15 52
e 15 61
e 16 26
e 16 31
e 16 37
e 16 51
e 16 56
e 16 60
e 17 37
e 17 40
e 17 48
e 17 53
e 17 56
e 17 61
e 17 67
e 18 35
e 18 36
e 18 38
e 18 39
e 19 32
e 19 39
e 19 67
e 20 30
e 20 44
e 20 57
e 20 61
e 20 67
e 21 29
e 21 42
e 22 24
e 22 26
e 22 28
e 22 51
e 23 34
e 24 48
e 25 26
e 25 56
e 25 62
e 26 30
e 26 31
e 26 37
e 26 38
e 26 46
e 26 55
e 26 68
e 27 34
e 27 40
e 27 46
e 27 51
e 27 58
e 27 67
e 28 67
e 29 31
e 29 36
e 29 42
e 30 33
e 30 44
e 30 51
e 31 33
e 31 34
e 31 35
e 31 37
e 31 48
e 31 52
e 32 45
e 32 49
e 32 51
e 32 55
e 32 58
e 32 60
e 33 34
e 33 36
e 33 37
e 33 55
e 33 64
e 34 35
e 34 40
e 34 41
e 34 52
e 34 58
e 35 60
e 35 69
e 36 37
e 36 41
e 36 51
e 37 40
e 37 42
e 37 54
e 37 64
e 38 56
e 39 47
e 39 56
e 40 43
e 40 44
e 40 69
e 41 50
e 41 51
e 41 53
e 41 58
e 41 64
e 43 44
e 43 45
e 43 46
e 43 48
e 43 54
e 43 68
e 45 46
e 45 52
e 45 54
e 46 68
e 47 57
e 48 62
e 49 66
e 50 63
e 51 53
e 51 67
e 51 69
e 53 58
e 53 67
e 54 61
e 54 64
e 55 58
e 56 63
e 56 64
e 57 60
e 57 62
e 58 63
e 59 65
e 60 69
e 61 65
e 62 65
e 63 65
e 64 68
